11
0 49 35 14 96 26 25 58 15 32 23 
92 0 92 7 59 60 55 34 58 65 59 
22 33 0 23 82 13 93 57 49 3 64 
5 14 68 0 75 49 25 36 35 49 100 
95 39 82 43 0 68 68 95 62 16 33 
6 60 20 77 52 0 50 96 91 87 63 
7 47 54 5 49 7 0 72 9 90 5 
31 72 75 96 74 27 11 0 67 42 78 
86 41 27 39 85 91 65 86 0 14 53 
30 71 53 61 32 79 17 98 72 0 89 
19 80 66 39 4 79 3 68 15 53 0 